Minimize
 obj: + 234.3 x_user1_load0_hour0 + 224.7 x_user1_load0_hour1 
 + 211 x_user1_load0_hour2 + 209.6 x_user1_load0_hour3 
 + 200.1 x_user1_load0_hour4 + 188.5 x_user1_load0_hour5 
 + 172.8 x_user1_load0_hour6 + 167.3 x_user1_load0_hour7 
 + 163.7 x_user1_load0_hour8 + 154 x_user1_load0_hour9 
 + 148.6 x_user1_load0_hour10 + 140.1 x_user1_load0_hour11 
 + 238.4 x_user1_load1_hour0 + 219.6 x_user1_load1_hour1 
 + 213 x_user1_load1_hour2 + 208.6 x_user1_load1_hour3 
 + 204.2 x_user1_load1_hour4 + 185.4 x_user1_load1_hour5 
 + 170.8 x_user1_load1_hour6 + 170.4 x_user1_load1_hour7 
 + 161.6 x_user1_load1_hour8 + 155 x_user1_load1_hour9 
 + 148.6 x_user1_load1_hour10 + 140.2 x_user1_load1_hour11 
 + 131.4 x_user1_load1_hour12 + 269.8 x_user1_load2_hour0 
 + 264.9 x_user1_load2_hour1 + 244.7 x_user1_load2_hour2 
 + 244.9 x_user1_load2_hour3 + 229.9 x_user1_load2_hour4 
 + 221 x_user1_load2_hour5 + 202.8 x_user1_load2_hour6 
 + 192.8 x_user1_load2_hour7 + 191.9 x_user1_load2_hour8 
 + 178.7 x_user1_load2_hour9 + 172.9 x_user1_load2_hour10 
 + 162.9 x_user1_load2_hour11 + 159.6 x_user1_load3_hour0 
 + 153.9 x_user1_load3_hour1 + 141 x_user1_load3_hour2 
 + 141.4 x_user1_load3_hour3 + 136.8 x_user1_load3_hour4 
 + 131.1 x_user1_load3_hour5 + 116.2 x_user1_load3_hour6 
 + 112.6 x_user1_load3_hour7 + 111.9 x_user1_load3_hour8 
 + 104 x_user1_load3_hour9 + 101.4 x_user1_load3_hour10 
 + 95.8 x_user1_load3_hour11 + 90.1 x_user1_load3_hour12 
 + 270.4 x_user1_load4_hour0 + 263.5 x_user1_load4_hour1 
 + 244.3 x_user1_load4_hour2 + 240.4 x_user1_load4_hour3 
 + 228.5 x_user1_load4_hour4 + 221.6 x_user1_load4_hour5 
 + 200.3 x_user1_load4_hour6 + 192.4 x_user1_load4_hour7 
 + 190.5 x_user1_load4_hour8 + 177.3 x_user1_load4_hour9 
 + 171.4 x_user1_load4_hour10 + 120 x_user1_load5_hour0 
 + 118.8 x_user1_load5_hour1 + 105.3 x_user1_load5_hour2 
 + 107.1 x_user1_load5_hour3 + 102.9 x_user1_load5_hour4 
 + 101.7 x_user1_load5_hour5 + 88.2 x_user1_load5_hour6 
 + 84 x_user1_load5_hour7 + 85.8 x_user1_load5_hour8 
 + 78.3 x_user1_load5_hour9 + 77.1 x_user1_load5_hour10 
 + 72.9 x_user1_load5_hour11 + 68.7 x_user1_load5_hour12 
 + 64.2 x_user1_load5_hour13 + 198.8 x_user1_load6_hour0 
 + 184.5 x_user1_load6_hour1 + 177.3 x_user1_load6_hour2 
 + 174.3 x_user1_load6_hour3 + 170.3 x_user1_load6_hour4 
 + 156 x_user1_load6_hour5 + 142.8 x_user1_load6_hour6 
 + 141.8 x_user1_load6_hour7 + 135.5 x_user1_load6_hour8 
 + 129.3 x_user1_load6_hour9 + 124.3 x_user1_load6_hour10 
 + 117.3 x_user1_load6_hour11 + 110 x_user1_load6_hour12 

Subject To 
 load_load0_scheduled: + 1 x_user1_load0_hour0 + 1 x_user1_load0_hour1 
 + 1 x_user1_load0_hour2 + 1 x_user1_load0_hour3 + 1 x_user1_load0_hour4 
 + 1 x_user1_load0_hour5 + 1 x_user1_load0_hour6 + 1 x_user1_load0_hour7 
 + 1 x_user1_load0_hour8 + 1 x_user1_load0_hour9 + 1 x_user1_load0_hour10 
 + 1 x_user1_load0_hour11  = 1.0
 load_load1_scheduled: + 1 x_user1_load1_hour0 + 1 x_user1_load1_hour1 
 + 1 x_user1_load1_hour2 + 1 x_user1_load1_hour3 + 1 x_user1_load1_hour4 
 + 1 x_user1_load1_hour5 + 1 x_user1_load1_hour6 + 1 x_user1_load1_hour7 
 + 1 x_user1_load1_hour8 + 1 x_user1_load1_hour9 + 1 x_user1_load1_hour10 
 + 1 x_user1_load1_hour11 + 1 x_user1_load1_hour12  = 1.0
 load_load2_scheduled: + 1 x_user1_load2_hour0 + 1 x_user1_load2_hour1 
 + 1 x_user1_load2_hour2 + 1 x_user1_load2_hour3 + 1 x_user1_load2_hour4 
 + 1 x_user1_load2_hour5 + 1 x_user1_load2_hour6 + 1 x_user1_load2_hour7 
 + 1 x_user1_load2_hour8 + 1 x_user1_load2_hour9 + 1 x_user1_load2_hour10 
 + 1 x_user1_load2_hour11  = 1.0
 load_load3_scheduled: + 1 x_user1_load3_hour0 + 1 x_user1_load3_hour1 
 + 1 x_user1_load3_hour2 + 1 x_user1_load3_hour3 + 1 x_user1_load3_hour4 
 + 1 x_user1_load3_hour5 + 1 x_user1_load3_hour6 + 1 x_user1_load3_hour7 
 + 1 x_user1_load3_hour8 + 1 x_user1_load3_hour9 + 1 x_user1_load3_hour10 
 + 1 x_user1_load3_hour11 + 1 x_user1_load3_hour12  = 1.0
 load_load4_scheduled: + 1 x_user1_load4_hour0 + 1 x_user1_load4_hour1 
 + 1 x_user1_load4_hour2 + 1 x_user1_load4_hour3 + 1 x_user1_load4_hour4 
 + 1 x_user1_load4_hour5 + 1 x_user1_load4_hour6 + 1 x_user1_load4_hour7 
 + 1 x_user1_load4_hour8 + 1 x_user1_load4_hour9 + 1 x_user1_load4_hour10 
  = 1.0
 load_load5_scheduled: + 1 x_user1_load5_hour0 + 1 x_user1_load5_hour1 
 + 1 x_user1_load5_hour2 + 1 x_user1_load5_hour3 + 1 x_user1_load5_hour4 
 + 1 x_user1_load5_hour5 + 1 x_user1_load5_hour6 + 1 x_user1_load5_hour7 
 + 1 x_user1_load5_hour8 + 1 x_user1_load5_hour9 + 1 x_user1_load5_hour10 
 + 1 x_user1_load5_hour11 + 1 x_user1_load5_hour12 + 1 x_user1_load5_hour13 
  = 1.0
 load_load6_scheduled: + 1 x_user1_load6_hour0 + 1 x_user1_load6_hour1 
 + 1 x_user1_load6_hour2 + 1 x_user1_load6_hour3 + 1 x_user1_load6_hour4 
 + 1 x_user1_load6_hour5 + 1 x_user1_load6_hour6 + 1 x_user1_load6_hour7 
 + 1 x_user1_load6_hour8 + 1 x_user1_load6_hour9 + 1 x_user1_load6_hour10 
 + 1 x_user1_load6_hour11 + 1 x_user1_load6_hour12  = 1.0
 MaxLoadConnection_user1_0: + 3 x_user1_load0_hour0 + 2 x_user1_load1_hour0 
 + 4 x_user1_load2_hour0 + 3 x_user1_load3_hour0 + 4 x_user1_load4_hour0 
 + 3 x_user1_load5_hour0 + 2 x_user1_load6_hour0  <= 4.0
 MaxLoadConnection_user1_1: + 3 x_user1_load0_hour1 + 2 x_user1_load0_hour0 
 + 2 x_user1_load1_hour1 + 4 x_user1_load1_hour0 + 4 x_user1_load2_hour1 
 + 1 x_user1_load2_hour0 + 3 x_user1_load3_hour1 + 1 x_user1_load3_hour0 
 + 4 x_user1_load4_hour1 + 1 x_user1_load4_hour0 + 3 x_user1_load5_hour1 
 + 2 x_user1_load6_hour1 + 3 x_user1_load6_hour0  <= 4.0
 MaxLoadConnection_user1_2: + 3 x_user1_load0_hour2 + 2 x_user1_load0_hour1 
 + 1 x_user1_load0_hour0 + 2 x_user1_load1_hour2 + 4 x_user1_load1_hour1 
 + 4 x_user1_load2_hour2 + 1 x_user1_load2_hour1 + 2 x_user1_load2_hour0 
 + 3 x_user1_load3_hour2 + 1 x_user1_load3_hour1 + 4 x_user1_load4_hour2 
 + 1 x_user1_load4_hour1 + 1 x_user1_load4_hour0 + 3 x_user1_load5_hour2 
 + 2 x_user1_load6_hour2 + 3 x_user1_load6_hour1  <= 4.0
 MaxLoadConnection_user1_3: + 3 x_user1_load0_hour3 + 2 x_user1_load0_hour2 
 + 1 x_user1_load0_hour1 + 2 x_user1_load1_hour3 + 4 x_user1_load1_hour2 
 + 4 x_user1_load2_hour3 + 1 x_user1_load2_hour2 + 2 x_user1_load2_hour1 
 + 3 x_user1_load3_hour3 + 1 x_user1_load3_hour2 + 4 x_user1_load4_hour3 
 + 1 x_user1_load4_hour2 + 1 x_user1_load4_hour1 + 1 x_user1_load4_hour0 
 + 3 x_user1_load5_hour3 + 2 x_user1_load6_hour3 + 3 x_user1_load6_hour2 
  <= 4.0
 MaxLoadConnection_user1_4: + 3 x_user1_load0_hour4 + 2 x_user1_load0_hour3 
 + 1 x_user1_load0_hour2 + 2 x_user1_load1_hour4 + 4 x_user1_load1_hour3 
 + 4 x_user1_load2_hour4 + 1 x_user1_load2_hour3 + 2 x_user1_load2_hour2 
 + 3 x_user1_load3_hour4 + 1 x_user1_load3_hour3 + 4 x_user1_load4_hour4 
 + 1 x_user1_load4_hour3 + 1 x_user1_load4_hour2 + 1 x_user1_load4_hour1 
 + 3 x_user1_load5_hour4 + 2 x_user1_load6_hour4 + 3 x_user1_load6_hour3 
  <= 4.0
 MaxLoadConnection_user1_5: + 3 x_user1_load0_hour5 + 2 x_user1_load0_hour4 
 + 1 x_user1_load0_hour3 + 2 x_user1_load1_hour5 + 4 x_user1_load1_hour4 
 + 4 x_user1_load2_hour5 + 1 x_user1_load2_hour4 + 2 x_user1_load2_hour3 
 + 3 x_user1_load3_hour5 + 1 x_user1_load3_hour4 + 4 x_user1_load4_hour5 
 + 1 x_user1_load4_hour4 + 1 x_user1_load4_hour3 + 1 x_user1_load4_hour2 
 + 3 x_user1_load5_hour5 + 2 x_user1_load6_hour5 + 3 x_user1_load6_hour4 
  <= 4.0
 MaxLoadConnection_user1_6: + 3 x_user1_load0_hour6 + 2 x_user1_load0_hour5 
 + 1 x_user1_load0_hour4 + 2 x_user1_load1_hour6 + 4 x_user1_load1_hour5 
 + 4 x_user1_load2_hour6 + 1 x_user1_load2_hour5 + 2 x_user1_load2_hour4 
 + 3 x_user1_load3_hour6 + 1 x_user1_load3_hour5 + 4 x_user1_load4_hour6 
 + 1 x_user1_load4_hour5 + 1 x_user1_load4_hour4 + 1 x_user1_load4_hour3 
 + 3 x_user1_load5_hour6 + 2 x_user1_load6_hour6 + 3 x_user1_load6_hour5 
  <= 4.0
 MaxLoadConnection_user1_7: + 3 x_user1_load0_hour7 + 2 x_user1_load0_hour6 
 + 1 x_user1_load0_hour5 + 2 x_user1_load1_hour7 + 4 x_user1_load1_hour6 
 + 4 x_user1_load2_hour7 + 1 x_user1_load2_hour6 + 2 x_user1_load2_hour5 
 + 3 x_user1_load3_hour7 + 1 x_user1_load3_hour6 + 4 x_user1_load4_hour7 
 + 1 x_user1_load4_hour6 + 1 x_user1_load4_hour5 + 1 x_user1_load4_hour4 
 + 3 x_user1_load5_hour7 + 2 x_user1_load6_hour7 + 3 x_user1_load6_hour6 
  <= 4.0
 MaxLoadConnection_user1_8: + 3 x_user1_load0_hour8 + 2 x_user1_load0_hour7 
 + 1 x_user1_load0_hour6 + 2 x_user1_load1_hour8 + 4 x_user1_load1_hour7 
 + 4 x_user1_load2_hour8 + 1 x_user1_load2_hour7 + 2 x_user1_load2_hour6 
 + 3 x_user1_load3_hour8 + 1 x_user1_load3_hour7 + 4 x_user1_load4_hour8 
 + 1 x_user1_load4_hour7 + 1 x_user1_load4_hour6 + 1 x_user1_load4_hour5 
 + 3 x_user1_load5_hour8 + 2 x_user1_load6_hour8 + 3 x_user1_load6_hour7 
  <= 4.0
 MaxLoadConnection_user1_9: + 3 x_user1_load0_hour9 + 2 x_user1_load0_hour8 
 + 1 x_user1_load0_hour7 + 2 x_user1_load1_hour9 + 4 x_user1_load1_hour8 
 + 4 x_user1_load2_hour9 + 1 x_user1_load2_hour8 + 2 x_user1_load2_hour7 
 + 3 x_user1_load3_hour9 + 1 x_user1_load3_hour8 + 4 x_user1_load4_hour9 
 + 1 x_user1_load4_hour8 + 1 x_user1_load4_hour7 + 1 x_user1_load4_hour6 
 + 3 x_user1_load5_hour9 + 2 x_user1_load6_hour9 + 3 x_user1_load6_hour8 
  <= 4.0
 MaxLoadConnection_user1_10: + 3 x_user1_load0_hour10 + 2 x_user1_load0_hour9 
 + 1 x_user1_load0_hour8 + 2 x_user1_load1_hour10 + 4 x_user1_load1_hour9 
 + 4 x_user1_load2_hour10 + 1 x_user1_load2_hour9 + 2 x_user1_load2_hour8 
 + 3 x_user1_load3_hour10 + 1 x_user1_load3_hour9 + 4 x_user1_load4_hour10 
 + 1 x_user1_load4_hour9 + 1 x_user1_load4_hour8 + 1 x_user1_load4_hour7 
 + 3 x_user1_load5_hour10 + 2 x_user1_load6_hour10 + 3 x_user1_load6_hour9 
  <= 4.0
 MaxLoadConnection_user1_11: + 3 x_user1_load0_hour11 + 2 x_user1_load0_hour10 
 + 1 x_user1_load0_hour9 + 2 x_user1_load1_hour11 + 4 x_user1_load1_hour10 
 + 4 x_user1_load2_hour11 + 1 x_user1_load2_hour10 + 2 x_user1_load2_hour9 
 + 3 x_user1_load3_hour11 + 1 x_user1_load3_hour10 + 1 x_user1_load4_hour10 
 + 1 x_user1_load4_hour9 + 1 x_user1_load4_hour8 + 3 x_user1_load5_hour11 
 + 2 x_user1_load6_hour11 + 3 x_user1_load6_hour10  <= 4.0
 MaxLoadConnection_user1_12: + 2 x_user1_load0_hour11 + 1 x_user1_load0_hour10 
 + 2 x_user1_load1_hour12 + 4 x_user1_load1_hour11 + 1 x_user1_load2_hour11 
 + 2 x_user1_load2_hour10 + 3 x_user1_load3_hour12 + 1 x_user1_load3_hour11 
 + 1 x_user1_load4_hour10 + 1 x_user1_load4_hour9 + 3 x_user1_load5_hour12 
 + 2 x_user1_load6_hour12 + 3 x_user1_load6_hour11  <= 4.0
 MaxLoadConnection_user1_13: + 1 x_user1_load0_hour11 + 4 x_user1_load1_hour12 
 + 2 x_user1_load2_hour11 + 1 x_user1_load3_hour12 + 1 x_user1_load4_hour10 
 + 3 x_user1_load5_hour13 + 3 x_user1_load6_hour12  <= 4.0

Bounds

Binary
 x_user1_load0_hour0 x_user1_load0_hour1 x_user1_load0_hour2
  x_user1_load0_hour3 x_user1_load0_hour4 x_user1_load0_hour5
  x_user1_load0_hour6 x_user1_load0_hour7 x_user1_load0_hour8
  x_user1_load0_hour9 x_user1_load0_hour10 x_user1_load0_hour11
  x_user1_load1_hour0 x_user1_load1_hour1 x_user1_load1_hour2
  x_user1_load1_hour3 x_user1_load1_hour4 x_user1_load1_hour5
  x_user1_load1_hour6 x_user1_load1_hour7 x_user1_load1_hour8
  x_user1_load1_hour9 x_user1_load1_hour10 x_user1_load1_hour11
  x_user1_load1_hour12 x_user1_load2_hour0 x_user1_load2_hour1
  x_user1_load2_hour2 x_user1_load2_hour3 x_user1_load2_hour4
  x_user1_load2_hour5 x_user1_load2_hour6 x_user1_load2_hour7
  x_user1_load2_hour8 x_user1_load2_hour9 x_user1_load2_hour10
  x_user1_load2_hour11 x_user1_load3_hour0 x_user1_load3_hour1
  x_user1_load3_hour2 x_user1_load3_hour3 x_user1_load3_hour4
  x_user1_load3_hour5 x_user1_load3_hour6 x_user1_load3_hour7
  x_user1_load3_hour8 x_user1_load3_hour9 x_user1_load3_hour10
  x_user1_load3_hour11 x_user1_load3_hour12 x_user1_load4_hour0
  x_user1_load4_hour1 x_user1_load4_hour2 x_user1_load4_hour3
  x_user1_load4_hour4 x_user1_load4_hour5 x_user1_load4_hour6
  x_user1_load4_hour7 x_user1_load4_hour8 x_user1_load4_hour9
  x_user1_load4_hour10 x_user1_load5_hour0 x_user1_load5_hour1
  x_user1_load5_hour2 x_user1_load5_hour3 x_user1_load5_hour4
  x_user1_load5_hour5 x_user1_load5_hour6 x_user1_load5_hour7
  x_user1_load5_hour8 x_user1_load5_hour9 x_user1_load5_hour10
  x_user1_load5_hour11 x_user1_load5_hour12 x_user1_load5_hour13
  x_user1_load6_hour0 x_user1_load6_hour1 x_user1_load6_hour2
  x_user1_load6_hour3 x_user1_load6_hour4 x_user1_load6_hour5
  x_user1_load6_hour6 x_user1_load6_hour7 x_user1_load6_hour8
  x_user1_load6_hour9 x_user1_load6_hour10 x_user1_load6_hour11
  x_user1_load6_hour12
General

End